
  32    1
  10

   0   0   7 2 3 5 6 7 9 11 
   4   3   6 27 19 16 14 10 8 
  10   9   1 4 
  10   9   5 27 19 16 14 8 
   7  10   6 26 19 17 16 14 12 
   7   4   6 26 21 17 16 15 13 
   8   8   2 27 8 
   6   8   7 26 23 22 21 20 17 15 
   8   7   6 25 23 22 21 17 16 
   2   8   6 31 26 25 21 20 17 
   5   8   5 27 23 21 20 17 
   5   9   4 22 21 20 15 
   3   8   5 31 23 22 20 18 
  10  10   4 29 23 22 18 
   9   8   4 31 29 25 24 
   1   4   4 31 30 29 24 
   1  10   2 29 18 
   2  10   2 30 24 
   9   7   2 29 24 
   2   4   2 29 28 
  10  10   1 24 
   2   7   1 24 
   7   5   1 24 
  10  10   1 28 
   1   9   1 30 
  10   8   1 28 
   8  10   1 31 
   7   8   1 32
   3  10   1 32
   3   9   1 32
   5  10   1 32
   0   0   0 
